************************************************************************
file with basedata            : cr540_.bas
initial value random generator: 15346
************************************************************************
projects                      :  1
jobs (incl. supersource/sink ):  18
horizon                       :  129
RESOURCES
  - renewable                 :  5   R
  - nonrenewable              :  2   N
  - doubly constrained        :  0   D
************************************************************************
PROJECT INFORMATION:
pronr.  #jobs rel.date duedate tardcost  MPM-Time
    1     16      0       16        8       16
************************************************************************
PRECEDENCE RELATIONS:
jobnr.    #modes  #successors   successors
   1        1          3           2   3   4
   2        3          2           5  16
   3        3          3           6   9  11
   4        3          3           7   8  17
   5        3          1          17
   6        3          1          10
   7        3          3           9  11  12
   8        3          3           9  11  12
   9        3          2          13  15
  10        3          3          12  13  17
  11        3          2          15  16
  12        3          2          14  15
  13        3          1          14
  14        3          1          16
  15        3          1          18
  16        3          1          18
  17        3          1          18
  18        1          0        
************************************************************************
REQUESTS/DURATIONS:
jobnr. mode duration  R 1  R 2  R 3  R 4  R 5  N 1  N 2
------------------------------------------------------------------------
  1      1     0       0    0    0    0    0    0    0
  2      1     5       9    9    7    4    6    8    7
         2     8       9    9    4    3    6    6    7
         3     9       8    8    2    3    4    4    7
  3      1     6       3   10    7    8    9    6    5
         2    10       3   10    7    3    8    5    4
         3    10       3   10    7    5    9    5    3
  4      1     2       5    7    9    6    4    9    8
         2     5       4    7    4    3    4    9    7
         3     8       3    6    2    2    4    7    4
  5      1     3       6   10    4   10    7    3    5
         2     8       5    9    4   10    6    1    1
         3     8       5    9    4    9    6    3    2
  6      1     3       6    7    7    7    6    7    5
         2     3       6    6    7    8    6    7    6
         3     5       6    4    4    6    5    3    2
  7      1     1       3    8    7    9   10   10    7
         2     5       2    7    7    7    7    7    5
         3    10       2    1    6    6    3    3    4
  8      1     4       3    6    7    9    8   10    7
         2     7       3    2    2    1    6    6    7
         3     7       3    3    5    2    4    8    6
  9      1     1       6    7    9    8    7    7    6
         2     5       4    6    9    7    5    6    3
         3     9       4    4    8    5    3    6    3
 10      1     1       6    5    7    3    8    6    9
         2     3       3    2    7    3    5    4    9
         3     5       3    1    6    3    3    3    9
 11      1     3       4    6    7   10    9    3    4
         2     5       4    5    5    8    6    3    2
         3    10       4    4    4    5    6    3    2
 12      1     1       7    5    7    5    7    6    2
         2     2       5    4    4    4    7    5    2
         3     8       1    4    2    2    5    4    2
 13      1     3       3    7    8    4    9    7    1
         2     8       2    6    7    4    7    4    1
         3     9       2    6    7    3    7    2    1
 14      1     1       6    7    9    3    8    7    3
         2     3       6    7    9    3    6    4    3
         3     5       4    7    8    3    2    1    3
 15      1     5       5    8    9    2    8    7    8
         2     5       5    9    6    2    8    6    6
         3     9       4    7    3    2    7    4    2
 16      1     1       8   10    9    8    4    9    4
         2     6       7    7    6    8    3    8    4
         3     9       7    6    5    7    3    8    3
 17      1     4       6    3    7    9    7    8    6
         2     4       7    3    7    9    6    6    8
         3     8       6    3    6    8    6    4    6
 18      1     0       0    0    0    0    0    0    0
************************************************************************
RESOURCEAVAILABILITIES:
  R 1  R 2  R 3  R 4  R 5  N 1  N 2
   22   33   28   36   33   76   66
************************************************************************
